
<<< setup


<<< generate

Version identifier: 22.1.1.0 | 2022-11-28 | 9160aff4d
CPXPARAM_TimeLimit                               1800
Found incumbent of value 0.000000 after 0.00 sec. (0.00 ticks)
Tried aggregator 1 time.
MIP Presolve eliminated 26 rows and 18 columns.
MIP Presolve modified 1 coefficients.
Reduced MIP has 35 rows, 37 columns, and 121 nonzeros.
Reduced MIP has 29 binaries, 8 generals, 0 SOSs, and 0 indicators.
Presolve time = 0.00 sec. (0.09 ticks)
Probing time = 0.00 sec. (0.03 ticks)
Tried aggregator 1 time.
Detecting symmetries...
Reduced MIP has 35 rows, 37 columns, and 121 nonzeros.
Reduced MIP has 29 binaries, 8 generals, 0 SOSs, and 0 indicators.
Presolve time = 0.00 sec. (0.09 ticks)
Probing time = 0.00 sec. (0.03 ticks)
Clique table members: 61.
MIP emphasis: balance optimality and feasibility.
MIP search method: dynamic search.
Parallel mode: deterministic, using up to 8 threads.
Root relaxation solution time = 0.00 sec. (0.04 ticks)

        Nodes                                         Cuts/
   Node  Left     Objective  IInf  Best Integer    Best Bound    ItCnt     Gap

*     0+    0                            0.0000       13.0000              --- 
*     0+    0                            4.0000       13.0000           225.00%
      0     0        8.0000     6        4.0000        8.0000        8  100.00%
      0     0        8.0000     3        4.0000       Cuts: 9       16  100.00%
*     0+    0                            6.0000        8.0000            33.33%
*     0     0      integral     0        8.0000       Cuts: 4       17    0.00%
      0     0        cutoff              8.0000        8.0000       17    0.00%
Elapsed time = 0.00 sec. (0.75 ticks, tree = 0.01 MB, solutions = 4)

Clique cuts applied:  2
Implied bound cuts applied:  6
Zero-half cuts applied:  1
Gomory fractional cuts applied:  3

Root node processing (before b&c):
  Real time             =    0.00 sec. (0.75 ticks)
Parallel b&c, 8 threads:
  Real time             =    0.00 sec. (0.00 ticks)
  Sync time (average)   =    0.00 sec.
  Wait time (average)   =    0.00 sec.
                          ------------
Total (root+branch&cut) =    0.00 sec. (0.75 ticks)

<<< solve


OBJECTIVE: 8

<<< post process


<<< done

